/* Objective function */
 min: 22 x11 + 14 x12 + 30 x13 + 16 x21 + 20 x22 + 24 x23 + 600 (x11 + x12 + x13) + 625 (x21 + x22 + x23 + x24);

/* Constraints */
 22 x11 + 14 x12 + 30 x13 <= 600;
 16 x21 + 20 x22 + 24 x23 <= 625;
 1 x11 + 1 x12 + 1 x13 <= 100;
 1 x21 + 1 x22 + 1 x23 <= 120;
 1 x11 + 1 x21 <= 80;
 1 x12 + 1 x22 <= 60;
 1 x13 + 1 x23 <= 70;
 1 x14 + 1 x24 <= 10;
  